sat
(:max-memory                   18.17
 :memory                       18.01
 :nlsat-conflicts              7
 :nlsat-decisions              1
 :nlsat-irrational-assignments 1
 :nlsat-learned-added          7
 :nlsat-propagations           41
 :nlsat-stages                 11
 :num-allocs                   7148
 :rlimit-count                 4093
 :time                         0.00
 :total-time                   0.01)
